1 1 2 0
1 -3 2 0
1 -3 -4 0
1 -3 -1 0
1 3 5 0
1 -3 -6 0
1 -7 -8 0
1 -7 -9 0
1 7 10 0
1 -7 -2 0
1 -7 6 0
1 -10 -8 0
1 10 -9 0
1 -10 -4 0
1 10 -11 0
1 -10 12 0
1 -10 7 0
1 -10 5 0
1 -10 6 0
1 4 13 0
1 -4 14 0
1 4 10 0
1 -4 -15 0
1 4 -16 0
1 4 17 0
1 4 18 0
1 -4 7 0
1 -4 6 0
1 -6 -19 0
1 -6 -13 0
1 6 20 0
1 -6 -14 0
1 -6 -10 0
1 -6 -3 0
1 6 -17 0
1 -6 18 0
1 -2 13 0
1 -2 21 0
1 2 -10 0
1 -2 -22 0
1 2 16 0
1 2 23 0
1 -2 -24 0
1 2 -7 0
1 -2 -1 0
1 -2 -5 0
1 5 13 0
1 5 -21 0
1 -5 -10 0
1 -5 2 0
1 5 -23 0
1 5 7 0
1 -5 1 0
1 5 -25 0
1 18 8 0
1 -18 9 0
1 -18 -14 0
1 18 -11 0
1 18 12 0
1 18 6 0
1 -14 -8 0
1 14 9 0
1 -14 -26 0
1 -14 -4 0
1 -14 -11 0
1 14 12 0
1 14 -18 0
1 -14 6 0
1 17 27 0
1 -17 -28 0
1 -17 -4 0
1 17 -11 0
1 17 12 0
1 -17 29 0
1 17 6 0
1 20 -8 0
1 20 9 0
1 20 27 0
1 20 21 0
1 20 -28 0
1 20 4 0
1 -20 -11 0
1 20 17 0
1 20 30 0
1 20 -29 0
1 20 6 0
1 -12 -31 0
1 12 20 0
1 -12 14 0
1 -12 -10 0
1 -12 32 0
1 12 33 0
1 12 34 0
1 -12 17 0
1 -12 7 0
1 -9 -35 0
1 9 31 0
1 9 -20 0
1 -9 -14 0
1 9 -10 0
1 9 32 0
1 -9 34 0
1 9 12 0
1 -9 -17 0
1 9 7 0
1 9 -36 0
1 11 -8 0
1 -11 13 0
1 11 -14 0
1 11 10 0
1 -11 -37 0
1 -11 16 0
1 -11 17 0
1 -11 18 0
1 11 -7 0
1 -11 36 0
1 8 38 0
1 -8 32 0
1 -8 -37 0
1 8 -16 0
1 -8 -18 0
1 -8 36 0
1 -34 -31 0
1 -34 -12 0
1 34 -16 0
1 34 -30 0
1 34 -29 0
1 -31 9 0
1 -31 13 0
1 31 27 0
1 31 -34 0
1 -31 12 0
1 31 29 0
1 -33 -35 0
1 -33 -9 0
1 33 27 0
1 -33 -28 0
1 -33 -37 0
1 -33 12 0
1 33 30 0
1 33 -29 0
1 35 9 0
1 35 27 0
1 35 28 0
1 35 12 0
1 -35 30 0
1 -35 29 0
1 -29 -35 0
1 -29 -31 0
1 -29 -28 0
1 29 33 0
1 29 17 0
1 28 -31 0
1 -28 -20 0
1 28 -33 0
1 28 34 0
1 -28 29 0
1 -30 20 0
1 -30 27 0
1 -30 -39 0
1 30 32 0
1 30 -33 0
1 30 34 0
1 -30 17 0
1 30 40 0
1 -30 36 0
1 -27 -35 0
1 27 31 0
1 27 -20 0
1 27 -32 0
1 -27 -34 0
1 27 17 0
1 27 -30 0
1 24 -41 0
1 -24 -42 0
1 24 2 0
1 24 -43 0
1 24 18 0
1 26 41 0
1 -26 14 0
1 -26 -2 0
1 26 -44 0
1 26 -43 0
1 -26 -24 0
1 26 5 0
1 -23 -41 0
1 23 -45 0
1 23 46 0
1 23 2 0
1 23 17 0
1 -23 -43 0
1 -23 -47 0
1 -23 5 0
1 21 43 0
1 -21 20 0
1 21 -41 0
1 21 -42 0
1 -21 45 0
1 21 46 0
1 21 -2 0
1 21 -44 0
1 -21 -23 0
1 -21 -48 0
1 -42 43 0
1 -42 13 0
1 42 21 0
1 42 37 0
1 42 -23 0
1 -42 -24 0
1 -43 -38 0
1 -43 -13 0
1 43 -21 0
1 -43 26 0
1 -43 42 0
1 -43 -24 0
1 -41 26 0
1 41 44 0
1 -41 23 0
1 -41 24 0
1 -44 21 0
1 44 -41 0
1 44 26 0
1 44 -23 0
1 44 24 0
1 -16 8 0
1 16 -13 0
1 16 45 0
1 16 2 0
1 -16 4 0
1 16 -11 0
1 16 -34 0
1 -16 -48 0
1 16 -5 0
1 -16 -6 0
1 13 -31 0
1 -13 42 0
1 13 -2 0
1 13 -43 0
1 -13 47 0
1 13 48 0
1 -13 -5 0
1 -13 -6 0
1 37 19 0
1 37 -38 0
1 -37 42 0
1 -37 -22 0
1 -37 -15 0
1 -37 11 0
1 37 -47 0
1 38 -35 0
1 38 -8 0
1 -38 -42 0
1 -38 -45 0
1 38 -22 0
1 -38 37 0
1 -38 43 0
1 38 -47 0
1 38 48 0
1 -46 38 0
1 -46 -13 0
1 -46 -21 0
1 -46 -39 0
1 -46 -32 0
1 46 -23 0
1 46 -48 0
1 -46 40 0
1 48 -38 0
1 48 46 0
1 48 -32 0
1 48 37 0
1 48 -16 0
1 -48 -23 0
1 -48 -40 0
1 -45 21 0
1 45 37 0
1 45 16 0
1 -45 23 0
1 45 -47 0
1 -47 -38 0
1 -47 -13 0
1 -47 21 0
1 -47 -45 0
1 -47 -37 0
1 47 23 0
1 -32 8 0
1 32 -9 0
1 -32 27 0
1 -32 46 0
1 32 -22 0
1 32 15 0
1 -32 -12 0
1 32 -25 0
1 -36 8 0
1 36 27 0
1 -36 -46 0
1 36 22 0
1 36 32 0
1 36 15 0
1 36 -11 0
1 -36 -30 0
1 -36 -48 0
1 36 -25 0
1 -39 19 0
1 -39 27 0
1 39 -15 0
1 39 30 0
1 -39 48 0
1 -39 -25 0
1 40 19 0
1 40 27 0
1 40 -15 0
1 40 30 0
1 40 -25 0
1 -40 48 0
1 -15 38 0
1 15 -39 0
1 15 32 0
1 15 -4 0
1 -15 -37 0
1 -15 -36 0
1 -19 -39 0
1 -19 15 0
1 -19 37 0
1 19 -6 0
1 -19 -40 0
1 22 38 0
1 22 -39 0
1 22 -2 0
1 22 -32 0
1 -22 -37 0
1 -22 25 0
1 -22 -36 0
1 -25 -38 0
1 25 -39 0
1 25 -22 0
1 -25 32 0
1 25 37 0
1 25 -5 0
1 -25 -36 0
